SAT
-1 -100 -99 98 -89 97 -96 53 94 -9 78 -37 -54 5 61 -28 -68 -23 46 -31 57 49 83 27 -81 -85 15 -17 6 33 80 -87 4 12 90 -8 -59 -71 77 -45 -18 -42 20 -55 -29 62 19 -7 47 -82 60 -24 86 40 -69 -16 -72 -21 -95 66 50 32 35 -43 65 -36 73 10 -30 13 51 22 -41 -76 -52 -44 -79 38 64 -93 88 -56 26 25 84 92 2 -91 -48 -67 -63 -74 -39 -14 -11 3 34 -70 -75 -58 0
